LAMMPS (12 Dec 2018)
OMP_NUM_THREADS environment is not set. Defaulting to 1 thread. (src/comm.cpp:87)
  using 1 OpenMP thread(s) per MPI task
# 3d Lennard-Jones melt

#initialise the crystal at high temperature
#log    log.lammps           #define the output logfile
variable        x index 1
variable        y index 1
variable        z index 1

variable        xx equal 5*$x   # boxlx
variable        xx equal 5*1   
variable        yy equal 5*$y   # boxly
variable        yy equal 5*1   
variable        zz equal 5*$z	 # boxlz
variable        zz equal 5*1	 

units           lj
atom_style      atomic
dimension       3

lattice       fcc   1.2           #density input (N = Nc*(boxlx*boxly(boxlz)) Nc=4 for fcc toal N =500
Lattice spacing in x,y,z = 1.4938 1.4938 1.4938
region         box block 0 ${xx} 0 ${yy} 0 ${zz}
region         box block 0 5 0 ${yy} 0 ${zz}
region         box block 0 5 0 5 0 ${zz}
region         box block 0 5 0 5 0 5
create_box      2 box
Created orthogonal box = (0 0 0) to (7.46901 7.46901 7.46901)
  1 by 1 by 1 MPI processor grid
create_atoms    1 box
Created 500 atoms
  Time spent = 0.000422243 secs

mass             1 1
mass             2 1


set   group all type/fraction 2 0.2013  107       #setting two types of particles for binary mixture, define fraction
  109 settings made for type/fraction
group     solvent type 1
391 atoms in group solvent

velocity      all create 8.00 87287 mom yes rot yes dist  gaussian  # 8.00 in the temperature

#potential input
pair_style lj/cut 2.5   # potential type cutoff
pair_modify shift yes
pair_coeff 1 1 1.0 1.0 2.5  #AA
pair_coeff 1 2 1.5 0.8 2.0  #AB
pair_coeff 2 2 0.5 0.88 2.2 #BB

neighbor    0.3 bin
neigh_modify      delay 0 every 5 check no

fix         1 all nvt temp 8.00 8.00 0.1      #NVT simulation 8.00 is the temperature

#saving the data in log file
thermo_style    custom step temp press pe ke etotal vol enthalpy        # For printing in log file

thermo          10        # log file dump step
thermo_modify   flush yes


dump          2 all custom 10 pos_vel.xyz id type xu yu zu fx fy fz vx vy vz #dumping positions
dump_modify   2 sort 2             #sorting by particle type(typeA/B in my case); use sort 1 if want to sort by particle id

write_data      1_xyz_files.data
Neighbor list info ...
  update every 5 steps, delay 0 steps, check no
  max neighbors/atom: 2000, page size: 100000
  master list distance cutoff = 2.8
  ghost atom cutoff = 2.8
  binsize = 1.4, bins = 6 6 6
  1 neighbor lists, perpetual/occasional/extra = 1 0 0
  (1) pair lj/cut, perpetual
      attributes: half, newton on
      pair build: half/bin/atomonly/newton
      stencil: half/bin/3d/newton
      bin: standard

#dump           3 all custom 10 vel.xyz id type vx vy vz #dumping velocities
#dump_modify    3 sort 2


restart    1000 restart1.dat restart_8.00.dat      #binary file used for next simulation
timestep         0.001                    #timestep
run            1000                     #run length
Per MPI rank memory allocation (min/avg/max) = 3.979 | 3.979 | 3.979 Mbytes
Step Temp Press PotEng KinEng TotEng Volume Enthalpy 
       0            8    12.538831   -6.4149238       11.976    5.5610762    416.66667    16.010102 
      10    7.6664063     15.24568   -5.9150416     11.47661    5.5615686    416.66667    18.266302 
      20    6.5423993    23.940882    -4.221141    9.7939717    5.5728307    416.66667    25.523565 
      30    5.1538513    34.710933   -2.0998564    7.7153155    5.6154591    416.66667    34.541237 
      40    4.7610038    38.867011   -1.4264484    7.1272227    5.7007743    416.66667     38.08995 
      50    4.8976255    39.365129   -1.4928119    7.3317453    5.8389334    416.66667    38.643207 
      60    5.1006828    39.353111   -1.6218368    7.6357222    6.0138854    416.66667    38.808144 
      70    5.1987325    39.912992   -1.5950172    7.7825026    6.1874854    416.66667    39.448312 
      80    5.2366617    40.639231   -1.4991813    7.8392826    6.3401013    416.66667    40.206127 
      90    5.3479387    40.744113   -1.5244067    8.0058642    6.4814575    416.66667    40.434885 
     100    5.4108549    41.160392   -1.4733982    8.1000498    6.6266516    416.66667    40.926978 
     110    5.4619509    41.707341   -1.3922453    8.1765404    6.7842951    416.66667    41.540413 
     120    5.5627562     41.95788   -1.3696803     8.327446    6.9577657    416.66667    41.922665 
     130    5.8006526    41.325411   -1.5363203    8.6835769    7.1472566    416.66667    41.585099 
     140    5.9179326    41.541373   -1.5102261    8.8591452    7.3489191    416.66667     41.96673 
     150    6.0125946    42.006396   -1.4468569    9.0008542    7.5539973    416.66667    42.559327 
     160    5.9670709     43.43507   -1.1719475    8.9327052    7.7607577    416.66667    43.956649 
     170    6.0620677    43.902951   -1.1066213    9.0749154     7.968294    416.66667    44.554086 
     180    6.2614232    43.676275   -1.1907507    9.3733505    8.1825998    416.66667    44.579495 
     190    6.3578774    44.225109   -1.1179646    9.5177424    8.3997778    416.66667    45.254035 
     200    6.3435228    45.576458  -0.87968741    9.4962537    8.6165663    416.66667    46.596948 
     210    6.3744449      46.5212  -0.71016589    9.5425441    8.8323782    416.66667    47.600045 
     220     6.607157    46.051878  -0.83846786     9.890914    9.0524462    416.66667    47.429011 
     230    6.7063374    46.478573  -0.76296217    10.039387    9.2764249    416.66667    48.008569 
     240     6.766245    47.234586  -0.63175441    10.129069    9.4973144    416.66667    48.859469 
     250    6.9893083    46.977135  -0.74365212    10.462995    9.7193425    416.66667    48.866955 
     260    7.1212482     47.36233   -0.7194984    10.660509    9.9410102    416.66667    49.409619 
     270    7.0018915    49.443923  -0.32434202    10.481832     10.15749    416.66667    51.360759 
     280    7.1389623    49.842005  -0.31793171    10.687027    10.369095    416.66667    51.904099 
     290    7.2087192    50.700729  -0.20863114    10.791453    10.582821    416.66667    52.833429 
     300     7.188524    52.113185  0.031099905     10.76122     10.79232    416.66667    54.219975 
     310    7.2007875    53.150476   0.22022326    10.779579    10.999802    416.66667    55.291865 
     320    7.4759799    52.271941  0.016397849    11.191542     11.20794    416.66667    54.767891 
     330    7.8197265     50.89851  -0.28777264     11.70613    11.418358    416.66667    53.833783 
     340    7.9751764    50.839224    -0.318977    11.938839    11.619862    416.66667    53.985882 
     350     7.819074    52.933646   0.10128458    11.705154    11.806438    416.66667     55.91781 
     360    7.6785717    54.893341   0.48535797    11.494822     11.98018    416.66667     57.72463 
     370    7.8558709     54.75278   0.39106471    11.760239    12.151303    416.66667     57.77862 
     380    8.0168641    54.623668    0.3187763    12.001246    12.320022    416.66667    57.839745 
     390    8.2504379     53.89684   0.13081848    12.350905    12.481724    416.66667    57.395758 
     400    8.1072331     55.57143   0.49537859    12.136528    12.631907    416.66667    58.941432 
     410    8.2011089    55.655632   0.49183383     12.27706    12.768894    416.66667    59.148587 
     420    8.3203158    55.538931   0.44189874    12.455513    12.897411    416.66667    59.179854 
     430    8.2279176    56.850663   0.69664594    12.317193    13.013839    416.66667    60.389391 
     440    8.2746537    57.229046   0.73186933    12.387157    13.119026    416.66667    60.809897 
     450    8.2858458    57.767572   0.81058266    12.403911    13.214494    416.66667    61.354137 
     460     8.141188    59.144849    1.1134569    12.187358    13.300815    416.66667     62.58819 
     470    8.3418194    58.037822   0.89216862    12.487704    13.379872    416.66667    61.744724 
     480    8.7942462    55.258145   0.28409191    13.164986    13.449078    416.66667    59.497533 
     490    8.8301946    55.288178   0.27847194    13.218801    13.497273    416.66667    59.570755 
     500    8.5368174    57.434478   0.73921713    12.779616    13.518833    416.66667    61.380897 
     510    8.6330043    56.815473   0.59633745    12.923607    13.519945    416.66667    60.866173 
     520     8.722486    56.032271   0.44423013    13.057562    13.501792    416.66667    60.195351 
     530    8.7573591    55.510521   0.34905614    13.109767    13.458823    416.66667     59.71759 
     540    8.5269201    56.824282   0.62774254    12.764799    13.392542    416.66667    60.746111 
     550    8.1603118    59.003036    1.0980069    12.215987    13.313994    416.66667     62.48319 
     560    8.4936576     56.32993   0.51229442    12.715005      13.2273    416.66667    60.168908 
     570    8.7456875    54.008859  0.029563423    13.092294    13.121858    416.66667     58.12924 
     580    8.3572297    55.960676   0.48767282    12.510773    12.998446    416.66667    59.632342 
     590    7.9292569    58.221436     1.001396    11.870098    12.871494    416.66667    61.389357 
     600    7.7812854    58.552896    1.1070292    11.648584    12.755613    416.66667    61.549694 
     610    8.1108358    55.764554   0.50228389    12.141921    12.644205    416.66667    59.114667 
     620    8.0435213    55.588357   0.49125375    12.041151    12.532405    416.66667    58.856036 
     630    7.8561397    56.220937   0.66437846    11.760641     12.42502    416.66667      59.2758 
     640    7.8503845       55.803   0.57160643    11.752026    12.323632    416.66667    58.826132 
     650     7.642074    56.834773   0.79115956    11.440185    12.231344    416.66667    59.593655 
     660    7.3723587    58.284235    1.1166208    11.036421    12.153042    416.66667    60.723238 
     670    7.3475773     58.07215     1.095798    10.999323    12.095121    416.66667    60.488579 
     680    7.8552622    54.374959     0.291474    11.759328    12.050802    416.66667    57.363268 
     690    7.9216027    53.659738   0.15315604    11.858639    12.011795    416.66667    56.728243 
     700    7.8625015     53.87531   0.20448637    11.770165    11.974651    416.66667    56.870743 
     710    7.7394265    54.536153   0.35565897    11.585922     11.94158    416.66667    57.388374 
     720    7.5093042    55.902717   0.67632727    11.241428    11.917756    416.66667    58.503353 
     730    7.6910627    54.648063   0.39161853    11.513521    11.905139    416.66667    57.445192 
     740    7.6852424    54.676628   0.39853216    11.504808     11.90334    416.66667    57.467196 
     750    7.5673389    55.534009   0.58272275    11.328306    11.911029    416.66667     58.18937 
     760    7.7166763     54.63151   0.37687725    11.551864    11.928742    416.66667       57.455 
     770    7.7353064    54.512748   0.37767418    11.579754    11.957428    416.66667    57.384718 
     780    7.8829304    53.574287   0.19267866    11.800747    11.993426    416.66667    56.638665 
     790    7.9889276    53.038852  0.074282178    11.959425    12.033707    416.66667     56.23275 
     800    7.8058261     54.48499   0.39130198    11.685322    12.076624    416.66667    57.480782 
     810    7.9943461    53.487989   0.15504212    11.967536    12.122578    416.66667    56.695903 
     820    8.0280725    53.573283   0.15316104    12.018025    12.171186    416.66667    56.815588 
     830    7.8007725    55.434995   0.54226847    11.677756    12.220025    416.66667    58.415854 
     840    7.9064716    55.048877   0.43674183    11.835988     12.27273    416.66667    58.146794 
     850    7.9810338    54.869235   0.38141914    11.947608    12.329027    416.66667    58.053389 
     860    7.9301453    55.455402   0.51572972    11.871427    12.387157    416.66667    58.599992 
     870    8.0033623    55.170763   0.46648286    11.981033    12.447516    416.66667    58.423152 
     880    8.2455943    53.830977   0.16362244    12.343655    12.507277    416.66667    57.366425 
     890    8.1667097    54.718944   0.33685301    12.225564    12.562417    416.66667    58.161537 
     900    7.9864203    56.386427   0.65658005    11.955671    12.612251    416.66667    59.600941 
     910    8.1510636    55.701339   0.45764757    12.202142     12.65979    416.66667    59.077572 
     920    8.2370998    55.259269   0.37478884    12.330938    12.705727    416.66667    58.755118 
     930    8.4245827     54.09617   0.13150446      12.6116    12.743105    416.66667    57.823247 
     940    8.1038494    56.339094   0.64001321    12.131463    12.771476    416.66667    59.720721 
     950    8.0483713    56.836042   0.74514711    12.048412    12.793559    416.66667    60.156927 
     960    8.2843181    55.328701   0.41238511    12.401624    12.814009    416.66667    58.921261 
     970    8.3710786    54.786024   0.29537108    12.531505    12.826876    416.66667    58.481896 
     980    8.1957656    56.000632   0.56057844    12.269061     12.82964    416.66667    59.496833 
     990    8.1877931    56.080143   0.56818286    12.257126    12.825309    416.66667    59.558762 
    1000    8.3325373     55.08156   0.34011117    12.473808     12.81392    416.66667     58.71522 
Loop time of 0.578956 on 1 procs for 1000 steps with 500 atoms

Performance: 149234.145 tau/day, 1727.247 timesteps/s
93.1% CPU use with 1 MPI tasks x 1 OpenMP threads

MPI task timing breakdown:
Section |  min time  |  avg time  |  max time  |%varavg| %total
---------------------------------------------------------------
Pair    | 0.25051    | 0.25051    | 0.25051    |   0.0 | 43.27
Neigh   | 0.14171    | 0.14171    | 0.14171    |   0.0 | 24.48
Comm    | 0.011488   | 0.011488   | 0.011488   |   0.0 |  1.98
Output  | 0.16786    | 0.16786    | 0.16786    |   0.0 | 28.99
Modify  | 0.005474   | 0.005474   | 0.005474   |   0.0 |  0.95
Other   |            | 0.001913   |            |       |  0.33

Nlocal:    500 ave 500 max 500 min
Histogram: 1 0 0 0 0 0 0 0 0 0
Nghost:    2177 ave 2177 max 2177 min
Histogram: 1 0 0 0 0 0 0 0 0 0
Neighs:    22797 ave 22797 max 22797 min
Histogram: 1 0 0 0 0 0 0 0 0 0

Total # of neighbors = 22797
Ave neighs/atom = 45.594
Neighbor list builds = 200
Dangerous builds not checked
#================================================

Total wall time: 0:00:00
